jobs  (incl. supersource/sink ):	52
RESOURCES
- renewable                 : 4 R
- nonrenewable              : 2 N
- doubly constrained        : 0 D
************************************************************************
PRECEDENCE RELATIONS:
jobnr.    #modes  #successors   successors
1	1	19		2 3 4 5 6 7 9 10 12 14 15 16 18 20 21 22 25 28 31 
2	9	6		51 37 32 23 17 8 
3	9	7		36 34 32 30 27 26 8 
4	9	9		50 46 44 37 33 30 26 19 13 
5	9	9		51 50 48 45 35 34 32 27 11 
6	9	5		51 48 34 24 11 
7	9	5		51 50 45 30 11 
8	9	5		50 45 41 35 11 
9	9	11		50 49 47 46 44 43 42 41 38 34 30 
10	9	3		50 41 11 
11	9	8		49 47 43 42 39 38 33 29 
12	9	5		51 39 32 29 26 
13	9	7		51 49 47 42 39 35 32 
14	9	7		48 43 42 40 39 38 29 
15	9	6		48 40 39 38 32 29 
16	9	6		43 42 39 38 32 30 
17	9	4		44 38 30 27 
18	9	5		42 41 39 37 26 
19	9	5		43 40 38 34 32 
20	9	6		50 45 42 40 39 38 
21	9	5		43 40 39 36 35 
22	9	4		43 39 35 32 
23	9	3		42 40 34 
24	9	3		45 43 36 
25	9	3		45 39 33 
26	9	3		45 40 38 
27	9	3		47 41 39 
28	9	3		45 44 39 
29	9	2		46 44 
30	9	2		48 40 
31	9	2		41 38 
32	9	1		41 
33	9	1		40 
34	9	1		39 
35	9	1		38 
36	9	1		38 
37	9	1		38 
38	9	1		52 
39	9	1		52 
40	9	1		52 
41	9	1		52 
42	9	1		52 
43	9	1		52 
44	9	1		52 
45	9	1		52 
46	9	1		52 
47	9	1		52 
48	9	1		52 
49	9	1		52 
50	9	1		52 
51	9	1		52 
52	1	0		
************************************************************************
REQUESTS/DURATIONS
jobnr.	mode	dur	R1	R2	R3	R4	N1	N2	
------------------------------------------------------------------------
1	1	0	0	0	0	0	0	0	
2	1	3	4	4	2	4	9	19	
	2	9	4	4	1	4	8	18	
	3	11	4	4	1	4	7	17	
	4	15	4	4	1	4	7	16	
	5	18	4	4	1	3	6	14	
	6	20	4	4	1	3	6	13	
	7	28	4	4	1	3	6	12	
	8	29	4	4	1	2	5	11	
	9	30	4	4	1	2	5	10	
3	1	1	4	1	4	4	3	12	
	2	2	4	1	3	3	3	12	
	3	3	4	1	3	3	3	11	
	4	3	4	1	2	3	3	12	
	5	5	3	1	2	3	2	12	
	6	9	3	1	2	3	2	11	
	7	13	3	1	2	3	2	10	
	8	17	3	1	1	3	2	11	
	9	23	3	1	1	3	2	10	
4	1	4	3	2	4	3	24	16	
	2	8	3	2	3	3	24	15	
	3	9	3	2	3	3	22	15	
	4	10	3	2	2	3	19	15	
	5	11	3	2	2	3	18	15	
	6	13	2	1	2	2	15	15	
	7	14	2	1	1	2	13	15	
	8	20	2	1	1	2	11	15	
	9	29	2	1	1	2	10	15	
5	1	3	3	3	1	3	24	28	
	2	10	2	3	1	3	23	24	
	3	11	2	3	1	3	23	23	
	4	13	2	3	1	3	22	23	
	5	15	2	3	1	2	21	19	
	6	20	1	3	1	2	21	18	
	7	23	1	3	1	1	20	16	
	8	26	1	3	1	1	19	15	
	9	28	1	3	1	1	19	14	
6	1	1	2	2	3	2	26	23	
	2	2	2	2	2	2	23	21	
	3	15	2	2	2	2	20	18	
	4	18	2	2	2	2	19	16	
	5	19	2	2	2	2	17	15	
	6	20	2	2	2	2	15	13	
	7	21	2	2	2	2	12	9	
	8	23	2	2	2	2	12	8	
	9	24	2	2	2	2	10	6	
7	1	10	2	5	3	2	11	26	
	2	12	2	4	3	1	11	26	
	3	14	2	3	3	1	11	26	
	4	15	2	3	3	1	11	25	
	5	16	2	3	3	1	11	24	
	6	17	2	2	3	1	10	26	
	7	25	2	1	3	1	10	26	
	8	26	2	1	3	1	10	25	
	9	30	2	1	3	1	10	24	
8	1	1	1	5	3	3	16	30	
	2	2	1	5	2	3	14	29	
	3	4	1	5	2	3	14	28	
	4	5	1	5	2	3	12	28	
	5	6	1	5	2	3	11	28	
	6	7	1	5	2	3	10	28	
	7	9	1	5	2	3	9	28	
	8	12	1	5	2	3	8	27	
	9	15	1	5	2	3	7	27	
9	1	1	4	5	3	4	29	23	
	2	3	3	4	3	3	28	21	
	3	4	3	4	3	3	27	18	
	4	5	2	4	3	3	25	18	
	5	9	2	4	2	2	24	14	
	6	10	2	4	2	2	23	14	
	7	12	1	4	1	2	23	10	
	8	17	1	4	1	1	21	9	
	9	19	1	4	1	1	21	7	
10	1	3	4	4	4	5	6	18	
	2	4	4	3	4	4	5	16	
	3	5	3	3	4	4	5	15	
	4	13	3	3	3	4	5	14	
	5	15	3	2	3	4	4	14	
	6	25	2	2	2	4	4	12	
	7	26	1	2	2	4	4	12	
	8	28	1	1	1	4	4	10	
	9	29	1	1	1	4	4	9	
11	1	10	4	4	2	2	29	17	
	2	13	4	4	1	1	27	15	
	3	15	4	4	1	1	27	12	
	4	17	4	3	1	1	25	10	
	5	18	4	3	1	1	25	8	
	6	24	4	3	1	1	23	7	
	7	25	4	2	1	1	22	5	
	8	26	4	2	1	1	21	5	
	9	27	4	2	1	1	21	2	
12	1	3	1	3	4	2	12	21	
	2	11	1	3	4	2	11	19	
	3	12	1	3	4	2	10	18	
	4	13	1	3	4	2	8	18	
	5	14	1	3	3	2	8	17	
	6	15	1	3	3	2	8	15	
	7	16	1	3	3	2	6	15	
	8	17	1	3	3	2	5	13	
	9	19	1	3	3	2	5	12	
13	1	3	3	4	3	5	19	12	
	2	10	3	4	3	4	16	12	
	3	21	3	4	3	4	14	12	
	4	22	2	3	3	3	13	12	
	5	23	2	3	2	2	11	12	
	6	24	2	3	2	2	10	12	
	7	27	1	2	2	2	8	12	
	8	28	1	2	2	1	5	12	
	9	30	1	2	2	1	3	12	
14	1	1	5	5	5	5	21	15	
	2	2	5	4	4	4	20	12	
	3	4	5	4	4	4	19	12	
	4	5	5	4	4	4	19	10	
	5	9	5	4	4	4	18	8	
	6	14	5	3	4	4	18	7	
	7	19	5	3	4	4	16	6	
	8	20	5	3	4	4	15	4	
	9	21	5	3	4	4	15	1	
15	1	5	4	2	5	4	5	30	
	2	7	4	2	4	3	5	29	
	3	8	4	2	4	3	5	28	
	4	17	4	2	4	3	5	27	
	5	21	3	2	4	3	5	26	
	6	24	3	1	4	2	5	26	
	7	27	3	1	4	2	5	25	
	8	28	3	1	4	2	5	24	
	9	29	3	1	4	2	5	23	
16	1	5	2	2	3	4	25	18	
	2	6	2	2	3	3	23	16	
	3	8	2	2	3	3	22	15	
	4	9	2	2	3	3	18	14	
	5	11	2	2	2	2	18	14	
	6	12	2	2	2	2	16	14	
	7	14	2	2	2	1	14	13	
	8	20	2	2	2	1	11	11	
	9	25	2	2	2	1	10	11	
17	1	2	3	5	3	5	24	27	
	2	15	3	5	3	4	21	25	
	3	19	3	5	3	4	19	23	
	4	20	3	5	3	4	19	22	
	5	21	2	5	2	4	14	22	
	6	22	2	5	2	4	14	20	
	7	23	2	5	2	4	11	19	
	8	24	2	5	2	4	10	19	
	9	30	2	5	2	4	7	17	
18	1	2	4	5	2	1	8	25	
	2	3	4	4	2	1	8	23	
	3	4	4	4	2	1	8	22	
	4	13	3	4	2	1	8	19	
	5	17	2	4	2	1	7	18	
	6	18	2	4	2	1	7	17	
	7	19	2	4	2	1	7	15	
	8	28	1	4	2	1	7	13	
	9	29	1	4	2	1	7	10	
19	1	1	1	5	2	4	29	28	
	2	11	1	4	2	3	29	27	
	3	14	1	4	2	3	27	26	
	4	16	1	4	2	3	27	25	
	5	17	1	3	2	3	26	25	
	6	21	1	3	2	3	25	24	
	7	28	1	3	2	3	25	23	
	8	29	1	3	2	3	23	23	
	9	30	1	3	2	3	23	22	
20	1	2	2	5	3	4	9	17	
	2	4	2	4	3	4	8	17	
	3	7	2	4	3	4	7	16	
	4	8	2	4	3	4	6	15	
	5	9	2	4	3	4	5	15	
	6	19	2	4	2	4	5	14	
	7	21	2	4	2	4	4	14	
	8	22	2	4	2	4	3	13	
	9	28	2	4	2	4	3	12	
21	1	1	5	2	3	5	20	28	
	2	3	4	1	3	4	18	24	
	3	4	3	1	3	4	17	23	
	4	5	3	1	3	4	17	21	
	5	7	3	1	3	3	14	21	
	6	9	2	1	3	3	14	20	
	7	12	1	1	3	3	13	18	
	8	24	1	1	3	3	10	15	
	9	29	1	1	3	3	9	14	
22	1	3	3	2	3	4	9	12	
	2	9	2	2	2	3	9	11	
	3	12	2	2	2	3	9	10	
	4	13	2	2	2	3	9	9	
	5	17	2	2	2	2	9	10	
	6	21	2	2	2	2	9	9	
	7	23	2	2	2	2	9	8	
	8	24	2	2	2	1	9	9	
	9	26	2	2	2	1	9	8	
23	1	2	4	5	4	3	25	10	
	2	6	4	5	3	3	22	10	
	3	11	4	5	3	3	21	9	
	4	12	4	5	3	3	18	9	
	5	13	4	5	3	3	15	8	
	6	15	4	5	3	3	14	7	
	7	19	4	5	3	3	12	7	
	8	22	4	5	3	3	8	6	
	9	24	4	5	3	3	6	5	
24	1	1	4	5	1	3	15	21	
	2	2	4	4	1	2	14	20	
	3	3	4	4	1	2	14	19	
	4	4	4	4	1	2	13	19	
	5	5	4	3	1	2	13	18	
	6	15	4	3	1	1	13	18	
	7	20	4	3	1	1	12	16	
	8	23	4	2	1	1	12	15	
	9	30	4	2	1	1	12	14	
25	1	1	4	2	4	5	11	26	
	2	2	4	2	3	4	10	23	
	3	8	4	2	3	4	10	22	
	4	10	4	2	2	4	10	18	
	5	11	4	1	2	4	10	17	
	6	13	4	1	2	4	9	15	
	7	14	4	1	1	4	9	13	
	8	16	4	1	1	4	9	9	
	9	17	4	1	1	4	9	8	
26	1	4	4	4	5	2	20	9	
	2	5	3	3	4	2	19	8	
	3	7	3	3	4	2	17	7	
	4	11	3	2	3	2	13	6	
	5	13	2	2	3	2	13	5	
	6	22	2	2	3	2	11	4	
	7	24	2	1	2	2	8	3	
	8	27	1	1	2	2	7	3	
	9	29	1	1	2	2	5	2	
27	1	2	3	4	1	3	24	15	
	2	3	3	3	1	2	22	13	
	3	4	3	3	1	2	22	10	
	4	11	3	2	1	2	21	10	
	5	14	3	2	1	2	20	7	
	6	18	3	2	1	2	20	6	
	7	24	3	1	1	2	20	6	
	8	28	3	1	1	2	18	3	
	9	30	3	1	1	2	18	2	
28	1	1	1	2	3	1	29	30	
	2	5	1	2	2	1	24	29	
	3	7	1	2	2	1	23	28	
	4	13	1	2	2	1	19	27	
	5	14	1	2	1	1	18	27	
	6	15	1	2	1	1	16	27	
	7	17	1	2	1	1	14	26	
	8	19	1	2	1	1	11	25	
	9	28	1	2	1	1	9	25	
29	1	1	3	2	3	5	18	25	
	2	4	3	2	2	4	17	23	
	3	5	3	2	2	4	16	22	
	4	8	3	2	2	4	16	19	
	5	9	3	2	2	3	15	18	
	6	20	2	2	1	3	13	17	
	7	22	2	2	1	3	12	17	
	8	23	2	2	1	3	11	15	
	9	28	2	2	1	3	10	14	
30	1	4	5	3	1	2	24	11	
	2	7	4	3	1	2	23	11	
	3	11	3	3	1	2	23	11	
	4	12	3	3	1	2	23	10	
	5	15	3	3	1	1	22	11	
	6	16	2	3	1	1	22	11	
	7	17	2	3	1	1	21	11	
	8	23	1	3	1	1	21	11	
	9	24	1	3	1	1	21	10	
31	1	1	1	4	5	1	5	28	
	2	9	1	4	4	1	5	28	
	3	10	1	3	4	1	5	25	
	4	16	1	3	3	1	5	24	
	5	19	1	2	3	1	4	23	
	6	22	1	2	3	1	4	21	
	7	23	1	2	2	1	4	20	
	8	24	1	1	2	1	4	18	
	9	29	1	1	2	1	4	15	
32	1	12	4	3	2	2	7	6	
	2	13	3	2	2	2	7	5	
	3	15	3	2	2	2	7	4	
	4	16	3	2	2	2	7	3	
	5	17	2	2	2	2	7	4	
	6	21	2	2	2	1	7	4	
	7	24	2	2	2	1	7	3	
	8	25	1	2	2	1	7	4	
	9	30	1	2	2	1	7	3	
33	1	5	1	2	4	1	17	14	
	2	6	1	2	4	1	16	14	
	3	13	1	2	4	1	15	14	
	4	14	1	2	4	1	15	13	
	5	15	1	1	4	1	15	14	
	6	16	1	1	3	1	14	14	
	7	25	1	1	3	1	14	13	
	8	29	1	1	3	1	13	14	
	9	30	1	1	3	1	13	13	
34	1	13	4	3	3	5	21	20	
	2	15	3	3	3	4	18	19	
	3	21	3	3	3	4	18	18	
	4	24	3	3	3	3	16	19	
	5	25	3	2	2	3	15	19	
	6	26	3	2	2	3	14	18	
	7	27	3	2	2	2	12	18	
	8	28	3	2	1	2	10	19	
	9	29	3	2	1	2	10	18	
35	1	10	4	4	5	2	26	19	
	2	11	4	4	4	2	26	18	
	3	15	4	3	4	2	26	18	
	4	18	4	3	3	2	26	18	
	5	19	4	3	3	2	26	17	
	6	25	3	2	3	2	26	17	
	7	26	3	2	3	2	26	16	
	8	28	3	1	2	2	26	18	
	9	29	3	1	2	2	26	17	
36	1	1	4	3	5	1	23	25	
	2	2	4	2	4	1	19	23	
	3	5	4	2	3	1	17	23	
	4	14	3	2	3	1	16	22	
	5	18	3	2	3	1	14	21	
	6	21	3	2	2	1	9	20	
	7	23	3	2	1	1	7	19	
	8	26	2	2	1	1	6	19	
	9	30	2	2	1	1	2	18	
37	1	2	4	3	3	4	30	12	
	2	3	4	2	2	4	25	11	
	3	7	3	2	2	4	21	11	
	4	10	3	2	2	4	20	11	
	5	21	3	1	1	4	16	11	
	6	25	2	1	1	4	13	10	
	7	26	2	1	1	4	9	10	
	8	28	1	1	1	4	7	10	
	9	29	1	1	1	4	5	10	
38	1	1	3	4	3	5	15	16	
	2	2	3	4	2	4	14	16	
	3	5	3	4	2	4	12	16	
	4	13	3	4	2	4	12	15	
	5	19	3	3	2	3	11	15	
	6	21	3	3	2	3	10	15	
	7	22	3	3	2	3	9	14	
	8	27	3	3	2	2	7	14	
	9	28	3	3	2	2	6	14	
39	1	2	1	2	5	4	25	10	
	2	5	1	2	4	3	23	9	
	3	14	1	2	4	3	22	8	
	4	17	1	2	3	2	20	7	
	5	19	1	2	3	2	19	6	
	6	20	1	2	3	2	16	6	
	7	21	1	2	3	1	14	6	
	8	24	1	2	2	1	13	5	
	9	30	1	2	2	1	13	4	
40	1	2	3	4	2	4	25	25	
	2	3	3	4	1	3	25	23	
	3	5	3	3	1	3	25	21	
	4	21	3	3	1	3	24	19	
	5	22	3	3	1	2	24	14	
	6	23	3	2	1	2	23	11	
	7	25	3	2	1	1	23	10	
	8	27	3	1	1	1	22	6	
	9	29	3	1	1	1	22	3	
41	1	1	3	2	5	3	26	10	
	2	4	2	1	4	3	26	10	
	3	9	2	1	4	3	24	10	
	4	17	2	1	4	3	23	10	
	5	18	1	1	4	2	23	9	
	6	22	1	1	4	2	21	9	
	7	25	1	1	4	2	20	8	
	8	26	1	1	4	2	20	7	
	9	29	1	1	4	2	19	8	
42	1	5	5	4	3	5	15	27	
	2	6	4	4	3	4	14	26	
	3	11	4	4	3	4	11	24	
	4	13	3	4	3	3	9	23	
	5	18	3	4	3	3	8	20	
	6	23	2	4	2	3	8	19	
	7	24	2	4	2	3	6	16	
	8	26	1	4	2	2	3	14	
	9	30	1	4	2	2	3	13	
43	1	2	4	5	2	4	25	10	
	2	3	3	5	2	4	25	9	
	3	4	3	5	2	4	24	9	
	4	5	3	5	2	4	23	9	
	5	10	3	5	1	4	22	7	
	6	16	3	5	1	3	21	7	
	7	22	3	5	1	3	20	6	
	8	23	3	5	1	3	19	5	
	9	28	3	5	1	3	19	4	
44	1	4	4	5	1	4	28	16	
	2	6	4	4	1	4	28	16	
	3	9	4	4	1	4	27	14	
	4	10	4	4	1	4	27	13	
	5	11	4	4	1	4	25	13	
	6	17	3	3	1	4	25	12	
	7	18	3	3	1	4	24	10	
	8	27	3	3	1	4	23	9	
	9	28	3	3	1	4	23	8	
45	1	2	5	4	5	1	20	25	
	2	5	5	4	4	1	17	21	
	3	6	5	4	4	1	14	20	
	4	9	5	4	3	1	13	18	
	5	11	5	4	3	1	10	12	
	6	22	5	4	3	1	10	11	
	7	23	5	4	2	1	8	9	
	8	26	5	4	2	1	4	5	
	9	29	5	4	2	1	2	2	
46	1	1	3	3	4	3	19	19	
	2	4	2	2	4	2	15	18	
	3	5	2	2	4	2	14	18	
	4	11	2	2	4	2	12	18	
	5	13	2	2	3	2	10	18	
	6	14	2	1	3	2	9	17	
	7	16	2	1	3	2	9	16	
	8	25	2	1	3	2	6	17	
	9	26	2	1	3	2	5	17	
47	1	4	4	3	2	5	30	30	
	2	5	4	2	1	4	27	29	
	3	10	4	2	1	4	24	29	
	4	13	4	2	1	4	21	29	
	5	16	4	1	1	4	17	28	
	6	17	4	1	1	4	15	28	
	7	22	4	1	1	4	11	28	
	8	24	4	1	1	4	8	28	
	9	27	4	1	1	4	6	28	
48	1	1	2	1	3	2	16	29	
	2	2	2	1	2	2	15	24	
	3	11	2	1	2	2	13	21	
	4	12	2	1	2	2	10	19	
	5	14	2	1	2	2	8	15	
	6	18	2	1	2	2	8	12	
	7	25	2	1	2	2	7	9	
	8	27	2	1	2	2	4	7	
	9	29	2	1	2	2	2	5	
49	1	1	5	3	4	4	25	19	
	2	5	4	3	4	4	24	18	
	3	6	3	3	4	4	24	18	
	4	7	3	3	4	3	23	17	
	5	8	3	3	4	3	22	16	
	6	16	2	3	3	3	22	16	
	7	17	1	3	3	3	22	15	
	8	18	1	3	3	2	21	15	
	9	24	1	3	3	2	21	14	
50	1	11	2	3	2	3	26	23	
	2	14	2	2	2	3	23	21	
	3	15	2	2	2	3	23	20	
	4	21	2	2	2	3	17	19	
	5	22	2	2	2	3	15	17	
	6	23	2	2	1	3	15	16	
	7	24	2	2	1	3	9	14	
	8	25	2	2	1	3	6	13	
	9	27	2	2	1	3	6	12	
51	1	1	3	4	4	4	26	27	
	2	6	3	3	4	4	24	22	
	3	7	3	3	4	4	23	21	
	4	10	3	3	4	4	23	19	
	5	18	2	3	3	4	22	16	
	6	23	2	3	3	4	21	13	
	7	26	2	3	3	4	19	13	
	8	28	2	3	3	4	19	8	
	9	30	2	3	3	4	18	6	
52	1	0	0	0	0	0	0	0	
************************************************************************

 RESOURCE AVAILABILITIES 
	R 1	R 2	R 3	R 4	N 1	N 2
	44	46	49	48	750	797

************************************************************************
